WARNING: for repeatability, setting FPU to use double precision
============================[ Problem Statistics ]=============================
|                                                                             |
|  Number of variables:            50                                         |
|  Number of clauses:             218                                         |
|  Parse time:                   0.00 s                                       |
|                                                                             |
============================[ Search Statistics ]==============================
| Conflicts |          ORIGINAL         |          LEARNT          | Progress |
|           |    Vars  Clauses Literals |    Limit  Clauses Lit/Cl |          |
===============================================================================
===============================================================================
restarts              : 1
conflicts             : 57             (38670 /sec)
decisions             : 82             (0.00 % random) (55631 /sec)
propagations          : 851            (577341 /sec)
conflict literals     : 218            (13.49 % deleted)
Memory used           : 20.00 MB
CPU time              : 0.001474 s

SATISFIABLE
